n = 30;
rows = 480;
supports = [|
    1,1,
  | 1,9,
  | 1,10,
  | 1,11,
  | 1,12,
  | 1,13,
  | 1,14,
  | 1,15,
  | 1,16,
  | 1,17,
  | 1,18,
  | 1,19,
  | 1,20,
  | 1,21,
  | 1,22,
  | 1,23,
  | 2,2,
  | 2,10,
  | 2,11,
  | 2,12,
  | 2,13,
  | 2,14,
  | 2,15,
  | 2,16,
  | 2,17,
  | 2,18,
  | 2,19,
  | 2,20,
  | 2,21,
  | 2,22,
  | 2,23,
  | 2,24,
  | 3,3,
  | 3,11,
  | 3,12,
  | 3,13,
  | 3,14,
  | 3,15,
  | 3,16,
  | 3,17,
  | 3,18,
  | 3,19,
  | 3,20,
  | 3,21,
  | 3,22,
  | 3,23,
  | 3,24,
  | 3,25,
  | 4,4,
  | 4,12,
  | 4,13,
  | 4,14,
  | 4,15,
  | 4,16,
  | 4,17,
  | 4,18,
  | 4,19,
  | 4,20,
  | 4,21,
  | 4,22,
  | 4,23,
  | 4,24,
  | 4,25,
  | 4,26,
  | 5,5,
  | 5,13,
  | 5,14,
  | 5,15,
  | 5,16,
  | 5,17,
  | 5,18,
  | 5,19,
  | 5,20,
  | 5,21,
  | 5,22,
  | 5,23,
  | 5,24,
  | 5,25,
  | 5,26,
  | 5,27,
  | 6,6,
  | 6,14,
  | 6,15,
  | 6,16,
  | 6,17,
  | 6,18,
  | 6,19,
  | 6,20,
  | 6,21,
  | 6,22,
  | 6,23,
  | 6,24,
  | 6,25,
  | 6,26,
  | 6,27,
  | 6,28,
  | 7,7,
  | 7,15,
  | 7,16,
  | 7,17,
  | 7,18,
  | 7,19,
  | 7,20,
  | 7,21,
  | 7,22,
  | 7,23,
  | 7,24,
  | 7,25,
  | 7,26,
  | 7,27,
  | 7,28,
  | 7,29,
  | 8,8,
  | 8,16,
  | 8,17,
  | 8,18,
  | 8,19,
  | 8,20,
  | 8,21,
  | 8,22,
  | 8,23,
  | 8,24,
  | 8,25,
  | 8,26,
  | 8,27,
  | 8,28,
  | 8,29,
  | 8,30,
  | 9,1,
  | 9,9,
  | 9,17,
  | 9,18,
  | 9,19,
  | 9,20,
  | 9,21,
  | 9,22,
  | 9,23,
  | 9,24,
  | 9,25,
  | 9,26,
  | 9,27,
  | 9,28,
  | 9,29,
  | 9,30,
  | 10,1,
  | 10,2,
  | 10,10,
  | 10,18,
  | 10,19,
  | 10,20,
  | 10,21,
  | 10,22,
  | 10,23,
  | 10,24,
  | 10,25,
  | 10,26,
  | 10,27,
  | 10,28,
  | 10,29,
  | 10,30,
  | 11,1,
  | 11,2,
  | 11,3,
  | 11,11,
  | 11,19,
  | 11,20,
  | 11,21,
  | 11,22,
  | 11,23,
  | 11,24,
  | 11,25,
  | 11,26,
  | 11,27,
  | 11,28,
  | 11,29,
  | 11,30,
  | 12,1,
  | 12,2,
  | 12,3,
  | 12,4,
  | 12,12,
  | 12,20,
  | 12,21,
  | 12,22,
  | 12,23,
  | 12,24,
  | 12,25,
  | 12,26,
  | 12,27,
  | 12,28,
  | 12,29,
  | 12,30,
  | 13,1,
  | 13,2,
  | 13,3,
  | 13,4,
  | 13,5,
  | 13,13,
  | 13,21,
  | 13,22,
  | 13,23,
  | 13,24,
  | 13,25,
  | 13,26,
  | 13,27,
  | 13,28,
  | 13,29,
  | 13,30,
  | 14,1,
  | 14,2,
  | 14,3,
  | 14,4,
  | 14,5,
  | 14,6,
  | 14,14,
  | 14,22,
  | 14,23,
  | 14,24,
  | 14,25,
  | 14,26,
  | 14,27,
  | 14,28,
  | 14,29,
  | 14,30,
  | 15,1,
  | 15,2,
  | 15,3,
  | 15,4,
  | 15,5,
  | 15,6,
  | 15,7,
  | 15,15,
  | 15,23,
  | 15,24,
  | 15,25,
  | 15,26,
  | 15,27,
  | 15,28,
  | 15,29,
  | 15,30,
  | 16,1,
  | 16,2,
  | 16,3,
  | 16,4,
  | 16,5,
  | 16,6,
  | 16,7,
  | 16,8,
  | 16,16,
  | 16,24,
  | 16,25,
  | 16,26,
  | 16,27,
  | 16,28,
  | 16,29,
  | 16,30,
  | 17,1,
  | 17,2,
  | 17,3,
  | 17,4,
  | 17,5,
  | 17,6,
  | 17,7,
  | 17,8,
  | 17,9,
  | 17,17,
  | 17,25,
  | 17,26,
  | 17,27,
  | 17,28,
  | 17,29,
  | 17,30,
  | 18,1,
  | 18,2,
  | 18,3,
  | 18,4,
  | 18,5,
  | 18,6,
  | 18,7,
  | 18,8,
  | 18,9,
  | 18,10,
  | 18,18,
  | 18,26,
  | 18,27,
  | 18,28,
  | 18,29,
  | 18,30,
  | 19,1,
  | 19,2,
  | 19,3,
  | 19,4,
  | 19,5,
  | 19,6,
  | 19,7,
  | 19,8,
  | 19,9,
  | 19,10,
  | 19,11,
  | 19,19,
  | 19,27,
  | 19,28,
  | 19,29,
  | 19,30,
  | 20,1,
  | 20,2,
  | 20,3,
  | 20,4,
  | 20,5,
  | 20,6,
  | 20,7,
  | 20,8,
  | 20,9,
  | 20,10,
  | 20,11,
  | 20,12,
  | 20,20,
  | 20,28,
  | 20,29,
  | 20,30,
  | 21,1,
  | 21,2,
  | 21,3,
  | 21,4,
  | 21,5,
  | 21,6,
  | 21,7,
  | 21,8,
  | 21,9,
  | 21,10,
  | 21,11,
  | 21,12,
  | 21,13,
  | 21,21,
  | 21,29,
  | 21,30,
  | 22,1,
  | 22,2,
  | 22,3,
  | 22,4,
  | 22,5,
  | 22,6,
  | 22,7,
  | 22,8,
  | 22,9,
  | 22,10,
  | 22,11,
  | 22,12,
  | 22,13,
  | 22,14,
  | 22,22,
  | 22,30,
  | 23,1,
  | 23,2,
  | 23,3,
  | 23,4,
  | 23,5,
  | 23,6,
  | 23,7,
  | 23,8,
  | 23,9,
  | 23,10,
  | 23,11,
  | 23,12,
  | 23,13,
  | 23,14,
  | 23,15,
  | 23,23,
  | 24,2,
  | 24,3,
  | 24,4,
  | 24,5,
  | 24,6,
  | 24,7,
  | 24,8,
  | 24,9,
  | 24,10,
  | 24,11,
  | 24,12,
  | 24,13,
  | 24,14,
  | 24,15,
  | 24,16,
  | 24,24,
  | 25,3,
  | 25,4,
  | 25,5,
  | 25,6,
  | 25,7,
  | 25,8,
  | 25,9,
  | 25,10,
  | 25,11,
  | 25,12,
  | 25,13,
  | 25,14,
  | 25,15,
  | 25,16,
  | 25,17,
  | 25,25,
  | 26,4,
  | 26,5,
  | 26,6,
  | 26,7,
  | 26,8,
  | 26,9,
  | 26,10,
  | 26,11,
  | 26,12,
  | 26,13,
  | 26,14,
  | 26,15,
  | 26,16,
  | 26,17,
  | 26,18,
  | 26,26,
  | 27,5,
  | 27,6,
  | 27,7,
  | 27,8,
  | 27,9,
  | 27,10,
  | 27,11,
  | 27,12,
  | 27,13,
  | 27,14,
  | 27,15,
  | 27,16,
  | 27,17,
  | 27,18,
  | 27,19,
  | 27,27,
  | 28,6,
  | 28,7,
  | 28,8,
  | 28,9,
  | 28,10,
  | 28,11,
  | 28,12,
  | 28,13,
  | 28,14,
  | 28,15,
  | 28,16,
  | 28,17,
  | 28,18,
  | 28,19,
  | 28,20,
  | 28,28,
  | 29,7,
  | 29,8,
  | 29,9,
  | 29,10,
  | 29,11,
  | 29,12,
  | 29,13,
  | 29,14,
  | 29,15,
  | 29,16,
  | 29,17,
  | 29,18,
  | 29,19,
  | 29,20,
  | 29,21,
  | 29,29,
  | 30,8,
  | 30,9,
  | 30,10,
  | 30,11,
  | 30,12,
  | 30,13,
  | 30,14,
  | 30,15,
  | 30,16,
  | 30,17,
  | 30,18,
  | 30,19,
  | 30,20,
  | 30,21,
  | 30,22,
  | 30,30 |];

t = 103;

indexes = [|
    0,5,
  | 0,6,
  | 0,9,
  | 0,10,
  | 0,11,
  | 0,14,
  | 0,22,
  | 1,16,
  | 1,20,
  | 1,23,
  | 1,24,
  | 1,28,
  | 2,5,
  | 2,11,
  | 2,14,
  | 2,17,
  | 2,18,
  | 2,22,
  | 2,29,
  | 3,8,
  | 3,16,
  | 3,19,
  | 3,24,
  | 3,25,
  | 3,26,
  | 3,27,
  | 4,7,
  | 4,12,
  | 4,15,
  | 4,20,
  | 4,28,
  | 5,8,
  | 5,9,
  | 5,14,
  | 5,17,
  | 5,19,
  | 5,25,
  | 5,27,
  | 6,9,
  | 6,10,
  | 6,19,
  | 6,25,
  | 7,12,
  | 7,13,
  | 7,15,
  | 7,18,
  | 7,21,
  | 7,29,
  | 8,13,
  | 8,14,
  | 8,18,
  | 8,21,
  | 8,26,
  | 8,27,
  | 8,29,
  | 9,10,
  | 9,11,
  | 9,14,
  | 9,22,
  | 10,19,
  | 10,25,
  | 11,17,
  | 11,22,
  | 12,15,
  | 12,20,
  | 12,28,
  | 13,15,
  | 13,16,
  | 13,20,
  | 13,21,
  | 13,24,
  | 13,27,
  | 13,28,
  | 14,17,
  | 14,19,
  | 14,25,
  | 14,27,
  | 15,18,
  | 15,21,
  | 15,29,
  | 16,21,
  | 16,23,
  | 16,24,
  | 16,26,
  | 17,18,
  | 17,22,
  | 17,29,
  | 18,27,
  | 18,29,
  | 19,25,
  | 19,26,
  | 20,21,
  | 20,23,
  | 20,28,
  | 21,24,
  | 21,27,
  | 21,28,
  | 23,24,
  | 23,28,
  | 24,26,
  | 25,26,
  | 26,27,
  | 27,29 |];

